Instance: E256-14k.dat
Class:  2
255 --- number of customers (no depot)
47 --- number of vehicles
387 --- number of items
Capacity - height - width of vehicles
  1000     40     20
Node - x - y - demand  Readytime Duetime
  0.00    0.00 -15.00   0.00 0       180.00       
  1.00   -1.00 -14.00 300.00 131.00  136.00       
  2.00    1.00 -14.00 300.00 140.00  145.00       
  3.00   -2.00 -13.00 180.00  80.00   89.00       
  4.00    0.00 -13.00 300.00   7.00   30.00       
  5.00    2.00 -13.00 180.00  35.00   49.00       
  6.00   -3.00 -12.00 128.00 143.00  148.00       
  7.00   -1.00 -12.00 180.00 107.00  125.00       
  8.00    1.00 -12.00 180.00  68.00   79.00       
  9.00    3.00 -12.00 128.00  36.00   46.00       
 10.00   -4.00 -11.00 100.00  56.00   69.00       
 11.00   -2.00 -11.00 128.00  53.00   70.00       
 12.00    0.00 -11.00 180.00  34.00   42.00       
 13.00    2.00 -11.00 128.00  60.00   76.00       
 14.00    4.00 -11.00 100.00 133.00  144.00       
 15.00   -5.00 -10.00  81.00  22.00   30.00       
 16.00   -3.00 -10.00 100.00 117.00  123.00       
 17.00   -1.00 -10.00 128.00  85.00   98.00       
 18.00    1.00 -10.00 128.00   9.00   30.00       
 19.00    3.00 -10.00 100.00  24.00   43.00       
 20.00    5.00 -10.00  81.00 115.00  124.00       
 21.00   -6.00  -9.00  69.00   8.00   30.00       
 22.00   -4.00  -9.00  81.00  68.00   76.00       
 23.00   -2.00  -9.00 100.00  29.00   42.00       
 24.00    0.00  -9.00 128.00 136.00  148.00       
 25.00    2.00  -9.00 100.00  55.00   69.00       
 26.00    4.00  -9.00  81.00 126.00  133.00       
 27.00    6.00  -9.00  69.00  76.00   81.00       
 28.00   -7.00  -8.00  60.00  42.00   50.00       
 29.00   -5.00  -8.00  69.00  45.00   57.00       
 30.00   -3.00  -8.00  81.00 133.00  151.00       
 31.00   -1.00  -8.00 100.00  98.00  105.00       
 32.00    1.00  -8.00 100.00  77.00   91.00       
 33.00    3.00  -8.00  81.00 137.00  151.00       
 34.00    5.00  -8.00  69.00  53.00   61.00       
 35.00    7.00  -8.00  60.00 103.00  118.00       
 36.00   -8.00  -7.00  52.00  27.00   47.00       
 37.00   -6.00  -7.00  60.00  95.00  112.00       
 38.00   -4.00  -7.00  69.00  74.00   91.00       
 39.00   -2.00  -7.00  81.00  33.00   40.00       
 40.00    0.00  -7.00 100.00  93.00   98.00       
 41.00    2.00  -7.00  81.00 106.00  111.00       
 42.00    4.00  -7.00  69.00 111.00  121.00       
 43.00    6.00  -7.00  60.00 109.00  120.00       
 44.00    8.00  -7.00  52.00  18.00   30.00       
 45.00   -9.00  -6.00  47.00  62.00   80.00       
 46.00   -7.00  -6.00  52.00  91.00  101.00       
 47.00   -5.00  -6.00  60.00 140.00  150.00       
 48.00   -3.00  -6.00  69.00  25.00   44.00       
 49.00   -1.00  -6.00  81.00  25.00   40.00       
 50.00    1.00  -6.00  81.00  55.00   73.00       
 51.00    3.00  -6.00  69.00 110.00  117.00       
 52.00    5.00  -6.00  60.00  83.00  101.00       
 53.00    7.00  -6.00  52.00 109.00  117.00       
 54.00    9.00  -6.00  47.00  82.00  100.00       
 55.00  -10.00  -5.00  42.00  68.00   87.00       
 56.00   -8.00  -5.00  47.00  57.00   67.00       
 57.00   -6.00  -5.00  52.00  84.00   94.00       
 58.00   -4.00  -5.00  60.00  79.00   90.00       
 59.00   -2.00  -5.00  69.00  64.00   79.00       
 60.00    0.00  -5.00  81.00 128.00  133.00       
 61.00    2.00  -5.00  69.00  83.00   94.00       
 62.00    4.00  -5.00  60.00  99.00  107.00       
 63.00    6.00  -5.00  52.00  22.00   39.00       
 64.00    8.00  -5.00  47.00  83.00   89.00       
 65.00   10.00  -5.00  42.00  76.00   82.00       
 66.00  -11.00  -4.00  39.00 125.00  138.00       
 67.00   -9.00  -4.00  42.00  78.00   93.00       
 68.00   -7.00  -4.00  47.00  80.00   97.00       
 69.00   -5.00  -4.00  52.00  52.00   58.00       
 70.00   -3.00  -4.00  60.00  48.00   57.00       
 71.00   -1.00  -4.00  69.00  27.00   33.00       
 72.00    1.00  -4.00  69.00  42.00   59.00       
 73.00    3.00  -4.00  60.00  58.00   78.00       
 74.00    5.00  -4.00  52.00  52.00   70.00       
 75.00    7.00  -4.00  47.00  78.00   96.00       
 76.00    9.00  -4.00  42.00  27.00   47.00       
 77.00   11.00  -4.00  39.00  93.00  113.00       
 78.00  -12.00  -3.00  36.00  30.00   40.00       
 79.00  -10.00  -3.00  39.00  96.00  108.00       
 80.00   -8.00  -3.00  42.00  40.00   54.00       
 81.00   -6.00  -3.00  47.00 149.00  154.00       
 82.00   -4.00  -3.00  52.00   6.00   30.00       
 83.00   -2.00  -3.00  60.00  37.00   54.00       
 84.00    0.00  -3.00  69.00  61.00   73.00       
 85.00    2.00  -3.00  60.00 146.00  161.00       
 86.00    4.00  -3.00  52.00  98.00  111.00       
 87.00    6.00  -3.00  47.00  30.00   48.00       
 88.00    8.00  -3.00  42.00  78.00   88.00       
 89.00   10.00  -3.00  39.00 111.00  118.00       
 90.00   12.00  -3.00  36.00  59.00   66.00       
 91.00  -13.00  -2.00  33.00 108.00  124.00       
 92.00  -11.00  -2.00  36.00  84.00  103.00       
 93.00   -9.00  -2.00  39.00  55.00   70.00       
 94.00   -7.00  -2.00  42.00  97.00  105.00       
 95.00   -5.00  -2.00  47.00 131.00  142.00       
 96.00   -3.00  -2.00  52.00  59.00   68.00       
 97.00   -1.00  -2.00  60.00 115.00  124.00       
 98.00    1.00  -2.00  60.00  27.00   38.00       
 99.00    3.00  -2.00  52.00  95.00  111.00       
100.00    5.00  -2.00  47.00 139.00  153.00       
101.00    7.00  -2.00  42.00 129.00  140.00       
102.00    9.00  -2.00  39.00   6.00   30.00       
103.00   11.00  -2.00  36.00  30.00   43.00       
104.00   13.00  -2.00  33.00  28.00   37.00       
105.00  -14.00  -1.00  31.00  96.00  116.00       
106.00  -12.00  -1.00  33.00  52.00   57.00       
107.00  -10.00  -1.00  36.00  58.00   70.00       
108.00   -8.00  -1.00  39.00 124.00  138.00       
109.00   -6.00  -1.00  42.00  93.00  112.00       
110.00   -4.00  -1.00  47.00 118.00  124.00       
111.00   -2.00  -1.00  52.00  90.00  104.00       
112.00    0.00  -1.00  60.00 118.00  129.00       
113.00    2.00  -1.00  52.00 133.00  146.00       
114.00    4.00  -1.00  47.00  40.00   51.00       
115.00    6.00  -1.00  42.00  35.00   43.00       
116.00    8.00  -1.00  39.00  95.00  110.00       
117.00   10.00  -1.00  36.00  60.00   65.00       
118.00   12.00  -1.00  33.00  19.00   30.00       
119.00   14.00  -1.00  31.00  90.00  100.00       
120.00  -15.00   0.00  29.00  79.00   88.00       
121.00  -13.00   0.00  31.00 107.00  112.00       
122.00  -11.00   0.00  33.00 136.00  146.00       
123.00   -9.00   0.00  36.00  70.00   88.00       
124.00   -7.00   0.00  39.00  57.00   76.00       
125.00   -5.00   0.00  42.00 149.00  158.00       
126.00   -3.00   0.00  47.00  94.00  109.00       
127.00   -1.00   0.00  52.00 120.00  127.00       
128.00    1.00   0.00  52.00  83.00   97.00       
129.00    3.00   0.00  47.00  67.00   74.00       
130.00    5.00   0.00  42.00  30.00   39.00       
131.00    7.00   0.00  39.00 150.00  163.00       
132.00    9.00   0.00  36.00  84.00   90.00       
133.00   11.00   0.00  33.00  55.00   70.00       
134.00   13.00   0.00  31.00 130.00  138.00       
135.00   15.00   0.00  29.00  30.00   44.00       
136.00  -14.00   1.00  29.00 134.00  146.00       
137.00  -12.00   1.00  31.00 133.00  138.00       
138.00  -10.00   1.00  33.00 112.00  117.00       
139.00   -8.00   1.00  36.00 127.00  147.00       
140.00   -6.00   1.00  39.00  59.00   68.00       
141.00   -4.00   1.00  42.00  34.00   50.00       
142.00   -2.00   1.00  47.00 109.00  121.00       
143.00    0.00   1.00  52.00  82.00   87.00       
144.00    2.00   1.00  47.00 118.00  136.00       
145.00    4.00   1.00  42.00  38.00   48.00       
146.00    6.00   1.00  39.00  83.00  101.00       
147.00    8.00   1.00  36.00 154.00  163.00       
148.00   10.00   1.00  33.00  25.00   31.00       
149.00   12.00   1.00  31.00  53.00   66.00       
150.00   14.00   1.00  29.00  96.00  102.00       
151.00  -13.00   2.00  29.00 149.00  163.00       
152.00  -11.00   2.00  31.00 118.00  125.00       
153.00   -9.00   2.00  33.00  71.00   78.00       
154.00   -7.00   2.00  36.00  11.00   30.00       
155.00   -5.00   2.00  39.00   8.00   30.00       
156.00   -3.00   2.00  42.00  51.00   60.00       
157.00   -1.00   2.00  47.00 119.00  130.00       
158.00    1.00   2.00  47.00 107.00  121.00       
159.00    3.00   2.00  42.00  23.00   32.00       
160.00    5.00   2.00  39.00 118.00  132.00       
161.00    7.00   2.00  36.00  34.00   54.00       
162.00    9.00   2.00  33.00  15.00   30.00       
163.00   11.00   2.00  31.00 110.00  128.00       
164.00   13.00   2.00  29.00  99.00  104.00       
165.00  -12.00   3.00  29.00  22.00   30.00       
166.00  -10.00   3.00  31.00 149.00  164.00       
167.00   -8.00   3.00  33.00  34.00   50.00       
168.00   -6.00   3.00  36.00  88.00   98.00       
169.00   -4.00   3.00  39.00  84.00   96.00       
170.00   -2.00   3.00  42.00  18.00   30.00       
171.00    0.00   3.00  47.00  27.00   36.00       
172.00    2.00   3.00  42.00  72.00   82.00       
173.00    4.00   3.00  39.00  64.00   81.00       
174.00    6.00   3.00  36.00 105.00  121.00       
175.00    8.00   3.00  33.00  35.00   41.00       
176.00   10.00   3.00  31.00 113.00  126.00       
177.00   12.00   3.00  29.00  57.00   73.00       
178.00  -11.00   4.00  29.00 118.00  138.00       
179.00   -9.00   4.00  31.00  77.00   96.00       
180.00   -7.00   4.00  33.00 109.00  126.00       
181.00   -5.00   4.00  36.00 135.00  146.00       
182.00   -3.00   4.00  39.00  22.00   31.00       
183.00   -1.00   4.00  42.00  43.00   51.00       
184.00    1.00   4.00  42.00 140.00  148.00       
185.00    3.00   4.00  39.00  42.00   60.00       
186.00    5.00   4.00  36.00 127.00  139.00       
187.00    7.00   4.00  33.00   8.00   30.00       
188.00    9.00   4.00  31.00  86.00  101.00       
189.00   11.00   4.00  29.00  74.00   87.00       
190.00  -10.00   5.00  29.00  25.00   34.00       
191.00   -8.00   5.00  31.00  66.00   78.00       
192.00   -6.00   5.00  33.00   5.00   30.00       
193.00   -4.00   5.00  36.00  72.00   78.00       
194.00   -2.00   5.00  39.00  24.00   42.00       
195.00    0.00   5.00  42.00  49.00   67.00       
196.00    2.00   5.00  39.00 129.00  142.00       
197.00    4.00   5.00  36.00  79.00   90.00       
198.00    6.00   5.00  33.00  21.00   39.00       
199.00    8.00   5.00  31.00  94.00  107.00       
200.00   10.00   5.00  29.00  69.00   80.00       
201.00   -9.00   6.00  29.00 103.00  121.00       
202.00   -7.00   6.00  31.00  30.00   40.00       
203.00   -5.00   6.00  33.00  47.00   61.00       
204.00   -3.00   6.00  36.00  13.00   30.00       
205.00   -1.00   6.00  39.00  93.00  107.00       
206.00    1.00   6.00  39.00 101.00  110.00       
207.00    3.00   6.00  36.00 120.00  134.00       
208.00    5.00   6.00  33.00  26.00   38.00       
209.00    7.00   6.00  31.00  26.00   36.00       
210.00    9.00   6.00  29.00   3.00   30.00       
211.00   -8.00   7.00  29.00 128.00  139.00       
212.00   -6.00   7.00  31.00 118.00  138.00       
213.00   -4.00   7.00  33.00  22.00   34.00       
214.00   -2.00   7.00  36.00 115.00  135.00       
215.00    0.00   7.00  39.00  40.00   45.00       
216.00    2.00   7.00  36.00 123.00  143.00       
217.00    4.00   7.00  33.00 116.00  134.00       
218.00    6.00   7.00  31.00 103.00  118.00       
219.00    8.00   7.00  29.00  44.00   56.00       
220.00   -7.00   8.00  29.00 116.00  134.00       
221.00   -5.00   8.00  31.00  12.00   30.00       
222.00   -3.00   8.00  33.00  57.00   67.00       
223.00   -1.00   8.00  36.00  73.00   86.00       
224.00    1.00   8.00  36.00  76.00   96.00       
225.00    3.00   8.00  33.00  41.00   52.00       
226.00    5.00   8.00  31.00  37.00   56.00       
227.00    7.00   8.00  29.00  60.00   79.00       
228.00   -6.00   9.00  29.00  20.00   39.00       
229.00   -4.00   9.00  31.00  65.00   72.00       
230.00   -2.00   9.00  33.00   8.00   30.00       
231.00    0.00   9.00  36.00 151.00  156.00       
232.00    2.00   9.00  33.00  13.00   30.00       
233.00    4.00   9.00  31.00  71.00   91.00       
234.00    6.00   9.00  29.00 145.00  152.00       
235.00   -5.00  10.00  29.00 138.00  148.00       
236.00   -3.00  10.00  31.00  54.00   68.00       
237.00   -1.00  10.00  33.00  60.00   65.00       
238.00    1.00  10.00  33.00  89.00  106.00       
239.00    3.00  10.00  31.00 118.00  130.00       
240.00    5.00  10.00  29.00 122.00  139.00       
241.00   -4.00  11.00  29.00  73.00   79.00       
242.00   -2.00  11.00  31.00  81.00   90.00       
243.00    0.00  11.00  33.00  38.00   45.00       
244.00    2.00  11.00  31.00 137.00  142.00       
245.00    4.00  11.00  29.00  62.00   74.00       
246.00   -3.00  12.00  29.00  34.00   44.00       
247.00   -1.00  12.00  31.00  13.00   33.00       
248.00    1.00  12.00  31.00 127.00  133.00       
249.00    3.00  12.00  29.00 118.00  124.00       
250.00   -2.00  13.00  29.00  26.00   45.00       
251.00    0.00  13.00  31.00 142.00  149.00       
252.00    2.00  13.00  29.00 115.00  131.00       
253.00   -1.00  14.00  29.00  88.00  104.00       
254.00    1.00  14.00  29.00  27.00   40.00
255.00    0.00  15.00  29.00  46.00   59.00
Node - number of items - h - w for each item
    0   0
    1   3    8   14   10    7   21    3
    2   2    5   12   30    4
    3   3    8    4   24    3   16    3
    4   3    6    8   11    5   25    4
    5   3   13    4   24    2   24    2
    6   1   26    3
    7   2    7   15   12    3
    8   2    7   14    7   13
    9   3   10    8   11    7   20    2
   10   2   13    5   16    3
   11   2    6   14   15    5
   12   3    7   13    8   11   14    4
   13   1   15    3
   14   2    5   16   12    5
   15   3    8   15    4    8   13    5
   16   1    5    8
   17   3    9    7   14    5   13    2
   18   1   14    3
   19   2    6    9   17    4
   20   3    5   15    7   14   24    3
   21   2    7   15   28    4
   22   2   11    8    7    8
   23   2    6    8    8    7
   24   3   10    7    9    5   31    2
   25   1   11    8
   26   1   15    5
   27   2    8   14   31    4
   28   2   14    7   10    6
   29   2   15    3   29    2
   30   1   11    8
   31   1   27    3
   32   1    8    7
   33   2    5    6   14    3
   34   3    6   16    5   16   15    7
   35   3   10    6    4    6   23    3
   36   2   26    4   15    3
   37   1    7   16
   38   3    6   14   14    7   20    3
   39   2   29    4   13    3
   40   2   11    4   20    3
   41   1    7    7
   42   1    8    6
   43   1   23    2
   44   3    9    6   13    3   28    2
   45   1   14    2
   46   2   26    2   25    2
   47   1   11    5
   48   3    4    9   12    4   19    3
   49   1    4   10
   50   3   14    7   21    4   29    3
   51   2   28    2   24    2
   52   2   10    7   16    6
   53   3    9    7   16    4   14    4
   54   2    7   13    7   11
   55   2    7   12   30    3
   56   2   12    7   28    3
   57   3    4   15    7   14   11    6
   58   3   12    5   11    5   25    2
   59   1    4   14
   60   1   21    2
   61   3    7   12    5    8   12    5
   62   2    7   12    9    6
   63   3   10    7    8    6   22    2
   64   2    6   15   10    7
   65   1   13    4
   66   1   32    3
   67   3    5   16    6    8   24    3
   68   1   11    7
   69   1   21    2
   70   2    4   12   19    4
   71   3    7   12   12    5   24    4
   72   3   12    7   10    5   25    2
   73   3    7   15    6   12   26    3
   74   3   21    4   28    3   12    2
   75   2    5    9    4    6
   76   1    6   15
   77   3    6   12    9    7   32    4
   78   3    8   11   14    7   19    3
   79   2    8   13    7    8
   80   2   12    7    6    6
   81   2    8   15    4   15
   82   2    5   11   23    2
   83   1   13    5
   84   2    6   13    7   10
   85   2    7   13   11    6
   86   2    6    8   15    7
   87   2   13    6   12    6
   88   1    7   16
   89   3    6   14    6   12    6    7
   90   2    6    8    4    8
   91   3    5   10   12    3   29    2
   92   1   26    3
   93   3    7    8   18    3   19    2
   94   1   29    3
   95   2    6    6   20    4
   96   2    6   16   13    3
   97   1   11    6
   98   2    9    5   23    4
   99   2    8   13   12    6
  100   1    5    8
  101   3    7   15    8   11   13    4
  102   1    5   14
  103   2   13    6   10    4
  104   3   16    6   18    3   17    2
  105   1   21    3
  106   3    6   12    8   10   27    4
  107   1   14    8
  108   1   14    4
  109   1    7    9
  110   1    4   15
  111   1   10    7
  112   2    9    5   28    3
  113   1    8    6
  114   3   12    5    9    5   16    2
  115   1    6    9
  116   2   10    6   30    3
  117   3   14    5   16    4   20    3
  118   2   12    7   14    6
  119   3    7    9    7    9   15    7
  120   3    8    8    5    7   16    2
  121   3   11    7   13    6   14    5
  122   1   21    3
  123   2   30    2   13    2
  124   3    5   14    5   11   12    6
  125   2    8   14   25    2
  126   3    4   13   15    6   15    6
  127   1   22    4
  128   1   22    4
  129   2    5   12   15    5
  130   3    4   15    5   13   11    8
  131   1   12    8
  132   2    5    7    4    7
  133   3    7   14   13    7   13    4
  134   1   23    2
  135   1   12    7
  136   3    7   16    7   16   16    7
  137   2   15    7   19    3
  138   2   14    7    9    5
  139   1   10    6
  140   1    6   10
  141   3    6   13   15    4   30    2
  142   3    9    5   29    3   19    3
  143   2    8    8    6    8
  144   3    5   16    4   11   28    3
  145   2    5   11   26    3
  146   2    6   16   24    2
  147   2    4   13   17    3
  148   3    7   11   11    5   16    2
  149   3    5   10    4    9    6    7
  150   3    5    9   13    8   16    3
  151   1   11    7
  152   1    7    8
  153   1   16    6
  154   3    5   10    5    9   15    2
  155   1    5   11
  156   2   19    4   23    3
  157   2    4   10   12    2
  158   2    7    8   18    4
  159   2   23    3   27    2
  160   2    7    9   21    3
  161   1   11    7
  162   2    4   10   23    4
  163   1   18    4
  164   3    5   13    7    7   18    4
  165   1   32    4
  166   2    5    8   16    3
  167   1    5    8
  168   1    5    9
  169   1   10    7
  170   3    4   13   12    8   18    3
  171   3   14    5   18    4   23    3
  172   3    7   15    9    8   12    6
  173   3   12    6   20    3   18    3
  174   3   30    3   17    3   25    2
  175   2   11    7   15    5
  176   3   11    8   14    6   12    6
  177   1   10    5
  178   3   31    3   21    3   14    2
  179   3    6   11    6    7   13    4
  180   1   15    6
  181   1   16    3
  182   3    6   14    4    9   12    4
  183   2    6    9    8    8
  184   3    8    5   23    3   18    2
  185   2    7   11   15    5
  186   2   11    8   11    7
  187   1   30    2
  188   3    6    9    6    8   26    3
  189   1    6   11
  190   2    8   13   30    3
  191   2    6   11   31    4
  192   2   21    4   16    3
  193   2    8    8   31    4
  194   1   15    3
  195   1   10    4
  196   3   15    7   11    6   21    2
  197   1   17    3
  198   2    7   13   15    5
  199   2    5   10   14    5
  200   2    5   14   25    3
  201   2    4   10   29    4
  202   3    7   12   22    3   25    2
  203   1   14    7
  204   3    6   14    6   10   27    3
  205   2    6   13    8    8
  206   2    7   13    7    9
  207   2    5   16    9    4
  208   1   22    4
  209   1    5   12
  210   2   23    3   32    2
  211   1   10    6
  212   2    8   13   29    3
  213   1    5   11
  214   1    6   15
  215   3    7   15    5   15   13    7
  216   3    7    6   30    3   12    2
  217   3    7    8   16    6   24    2
  218   3   14    8   11    7   15    3
  219   3   12    7   27    3   20    2
  220   1    5   13
  221   2   28    4   22    4
  222   2    4    9   28    3
  223   3    7   14   16    7   15    5
  224   2   13    4   11    4
  225   2    8   13    5   13
  226   3    7    9    4    7    9    4
  227   3    6   16    5    8   32    3
  228   1    4   13
  229   1    5    7
  230   1   10    5
  231   2    7   11   12    4
  232   3    6   15   10    6   20    3
  233   2    9    8   14    3
  234   1   24    3
  235   3    5   15    6    7   15    2
  236   3   16    6   11    6   23    3
  237   2   13    6   16    3
  238   2   13    6   13    2
  239   3    8   16    9    8   21    3
  240   2   13    8   17    4
  241   3   22    4   23    3   19    3
  242   1    5   12
  243   1   23    2
  244   3   12    8   15    6   14    6
  245   1    5   16
  246   3   15    7   27    4   28    2
  247   2    8   14   14    8
  248   3    4   12   14    7   26    2
  249   3    6   12   15    6   13    6
  250   1    7   13
  251   1   16    3
  252   3   15    6   18    4   13    2
  253   1   24    3
  254   1   19    3
  255   1    7    9




Instance: E023-03g.dat
Class:  1
22 --- number of customers (no depot)
3 --- number of vehicles
22 --- number of items
Capacity - height - width of vehicles
  4500     40     20
Node - x - y - demand  Readytime Duetime
  0.00  266.00 235.00   0.00 0       435.00       
  1.00  295.00 272.00 125.00 136.00  154.00       
  2.00  301.00 258.00  84.00 217.00  236.00       
  3.00  309.00 260.00  60.00  10.00   81.00       
  4.00  217.00 274.00 500.00 133.00  144.00       
  5.00  218.00 278.00 300.00 142.00  147.00       
  6.00  282.00 267.00 175.00 203.00  212.00       
  7.00  242.00 249.00 350.00 282.00  292.00       
  8.00  230.00 262.00 150.00 162.00  178.00       
  9.00  249.00 268.00 1100.00 240.00  250.00       
 10.00  256.00 267.00 4100.00 109.00  119.00       
 11.00  265.00 257.00 225.00 292.00  302.00       
 12.00  267.00 242.00 300.00  99.00  111.00       
 13.00  259.00 265.00 250.00  11.00   81.00       
 14.00  315.00 233.00 500.00  88.00  108.00       
 15.00  329.00 252.00 150.00 223.00  243.00       
 16.00  318.00 252.00 100.00 169.00  176.00       
 17.00  329.00 224.00 250.00  91.00   96.00       
 18.00  267.00 213.00 120.00 134.00  149.00       
 19.00  275.00 192.00 600.00 288.00  300.00       
 20.00  303.00 201.00 500.00 122.00  134.00       
 21.00  208.00 217.00 175.00  81.00   89.00       
 22.00  326.00 181.00  75.00 199.00  208.00       
